(set-logic HORN)
(set-info :source |
    Benchmark: C_VC
    Output by Princess (http://www.philipp.ruemmer.org/princess.shtml)
|)
(set-info :status unknown)
(declare-fun inv_main15 (Int Int Int) Bool)
(declare-fun inv_main16 (Int Int Int) Bool)
(declare-fun inv_main2 () Bool)
(assert inv_main2 )
(assert (forall ((var0 Int)) (forall ((var1 Int)) (forall ((var2 Int)) (or (not (and (inv_main15 var2 var1 var0 ) (not (and (<= 0 (+ (+ 100 (* (- 1) var2 ) ) (- 1) ) ) (<= 0 (+ (+ var0 (- 100) ) (- 1) ) ) ) ) ) ) (inv_main16 var2 var1 var0 ) ) ) ) ) )
(assert (forall ((var0 Int)) (forall ((var1 Int)) (forall ((var2 Int)) (forall ((var3 Int)) (or (not (and (inv_main15 var3 var2 var1 ) (and (not (= var0 0 ) ) (and (<= 0 (+ (+ 100 (* (- 1) var3 ) ) (- 1) ) ) (<= 0 (+ (+ var1 (- 100) ) (- 1) ) ) ) ) ) ) (inv_main15 (+ var3 1 ) var2 var1 ) ) ) ) ) ) )
(assert (forall ((var0 Int)) (forall ((var1 Int)) (forall ((var2 Int)) (forall ((var3 Int)) (or (not (and (inv_main15 var3 var1 var0 ) (and (= var2 0 ) (and (<= 0 (+ (+ 100 (* (- 1) var3 ) ) (- 1) ) ) (<= 0 (+ (+ var0 (- 100) ) (- 1) ) ) ) ) ) ) (inv_main15 (+ var3 (- 1) ) var1 (+ var0 (- 1) ) ) ) ) ) ) ) )
(assert (forall ((var0 Int)) (forall ((var1 Int)) (forall ((var2 Int)) (or (not (and inv_main2 (and (<= 0 (+ (+ var0 100 ) (- 1) ) ) (and (<= 0 (+ (+ 100 (* (- 1) var0 ) ) (- 1) ) ) (and (<= 0 (+ (+ var2 100 ) (- 1) ) ) (<= 0 (+ (+ 100 (* (- 1) var2 ) ) (- 1) ) ) ) ) ) ) ) (inv_main15 var2 var1 var0 ) ) ) ) ) )
(assert (forall ((var0 Int)) (forall ((var1 Int)) (forall ((var2 Int)) (not (and (inv_main16 var2 var1 var0 ) (and (not (<= 0 (+ var2 (- 100) ) ) ) (not (<= 0 (+ 100 (* (- 1) var0 ) ) ) ) ) ) ) ) ) ) )
(check-sat)
